6316.0
0 1 0 0 0 1 1 0 0 1 0 0 0 0 0 0 0 0 1 1 0 0 0 0 1 1 0 0 1 0 
18 19 18 24 25 9 25 19 1 5 24 1 25 9 18 6 19 18 18 19 25 9 19 19 19 25 28 6 28 5 5 24 24 25 19 9 25 1 19 6 18 18 28 24 5 25 9 9 9 6 19 25 9 18 6 6 19 19 25 5 5 1 1 5 28 28 1 28 28 28 